p cnf 197 499
a 2 4 68 75 15 17 24 26 37 38 45 47 148 159 172 189 1 9 14 23 32 52 36 44 57 0
d 10 68 75 0
d 59 14 23 0
d 58 1 9 0
d 138 52 57 0
d 126 45 32 0
d 53 36 44 0
d 3 2 0
d 5 4 0
d 6 2 4 0
d 7 1 2 4 0
d 8 1 2 4 0
d 11 9 68 75 0
d 12 9 68 75 0
d 13 1 2 4 9 68 75 0
d 16 15 0
d 18 17 0
d 19 15 17 0
d 20 14 15 17 0
d 21 14 15 17 0
d 22 1 2 4 9 68 75 14 15 17 0
d 25 24 0
d 27 26 0
d 28 24 26 0
d 29 23 24 26 0
d 30 23 24 26 0
d 31 1 2 4 9 68 75 14 15 17 23 24 26 0
d 33 32 2 4 0
d 34 32 2 4 0
d 35 1 2 4 9 68 75 14 15 17 23 24 26 32 0
d 39 37 38 0
d 40 37 38 0
d 41 36 37 38 0
d 42 36 37 38 0
d 43 1 2 4 9 68 75 14 15 17 23 24 26 32 36 37 38 0
d 46 45 0
d 48 45 47 0
d 49 44 45 47 0
d 50 44 45 47 0
d 51 1 2 4 9 68 75 14 15 17 23 24 26 32 36 37 38 44 45 47 0
d 54 52 36 44 0
d 55 52 36 44 0
d 56 1 2 4 9 68 75 14 15 17 23 24 26 32 36 37 38 44 45 47 52 0
d 60 1 9 14 23 0
d 61 57 1 9 14 23 0
d 62 57 1 9 14 23 0
d 63 1 2 4 9 68 75 14 15 17 23 24 26 32 36 37 38 44 45 47 52 57 0
d 64 2 0
d 65 2 4 0
d 66 2 4 0
d 67 2 4 0
d 69 68 2 0
d 70 68 2 4 0
d 71 68 2 4 0
d 72 2 4 68 0
d 73 68 0
d 74 2 4 68 0
d 76 2 4 68 75 0
d 77 2 4 68 75 0
d 78 2 4 68 75 0
d 79 15 2 0
d 80 15 2 4 0
d 81 68 75 15 2 4 0
d 82 75 0
d 83 68 75 0
d 84 68 75 15 2 4 0
d 85 68 75 15 2 4 0
d 86 2 4 68 75 15 0
d 87 15 17 0
d 88 15 17 1 9 0
d 89 2 4 68 75 0
d 90 15 17 2 4 68 75 0
d 91 15 17 1 9 2 4 68 75 0
d 92 2 4 68 75 15 17 1 9 0
d 93 24 2 0
d 94 24 2 4 0
d 95 68 75 15 0
d 96 68 75 15 17 0
d 97 24 2 4 68 75 15 17 0
d 98 68 75 15 0
d 99 68 75 15 17 0
d 100 24 2 4 68 75 15 17 0
d 101 24 2 4 68 75 15 17 0
d 102 2 4 68 75 15 17 1 9 24 0
d 103 15 17 24 0
d 104 15 17 24 26 0
d 105 1 9 15 17 24 26 0
d 106 2 4 68 75 15 17 24 26 0
d 107 1 9 15 17 24 26 2 4 68 75 0
d 108 2 4 68 75 15 17 1 9 24 26 0
d 109 37 2 0
d 110 37 2 4 0
d 111 24 26 37 2 4 0
d 112 68 75 15 17 24 26 37 2 4 0
d 113 68 75 15 17 24 26 37 2 4 0
d 114 68 75 15 17 24 26 37 2 4 0
d 115 2 4 68 75 15 17 1 9 24 26 37 0
d 116 37 0
d 117 37 38 0
d 118 37 38 1 9 0
d 119 14 23 37 38 1 9 0
d 120 15 17 24 26 0
d 121 37 38 2 4 68 75 0
d 122 15 17 24 26 37 38 2 4 68 75 0
d 123 14 23 37 38 1 9 15 17 24 26 2 4 68 75 0
d 124 2 4 68 75 15 17 1 9 24 26 37 14 23 38 0
d 125 24 26 37 38 0
d 127 45 32 68 75 15 17 0
d 128 24 26 37 38 45 32 68 75 15 17 0
d 129 24 26 37 0
d 130 38 0
d 131 24 26 37 38 0
d 132 45 2 0
d 133 45 2 4 0
d 134 45 2 4 68 75 15 17 0
d 135 24 26 37 38 45 2 4 68 75 15 17 0
d 136 24 26 37 38 45 32 68 75 15 17 2 4 0
d 137 2 4 68 75 15 17 1 9 24 26 37 14 23 38 45 32 0
d 139 37 38 0
d 140 37 38 45 0
d 141 37 38 45 47 0
d 142 2 4 68 75 15 17 24 26 0
d 143 37 38 45 47 2 4 68 75 15 17 24 26 0
d 144 52 57 37 38 45 47 2 4 68 75 15 17 24 26 0
d 145 2 4 68 75 15 17 1 9 24 26 37 14 23 38 45 32 52 57 47 0
d 146 47 0
d 147 45 47 0
d 149 148 2 0
d 150 148 2 4 0
d 151 45 47 148 2 4 0
d 152 68 75 15 17 24 26 37 38 0
d 153 45 47 148 2 4 68 75 15 17 24 26 37 38 0
d 154 68 75 15 17 24 26 37 38 0
d 155 45 47 148 2 4 68 75 15 17 24 26 37 38 0
d 156 45 47 148 2 4 68 75 15 17 24 26 37 38 0
d 157 2 4 68 75 15 17 1 9 24 26 37 14 23 38 45 32 52 57 47 148 0
d 158 148 0
d 160 148 159 0
d 161 148 159 1 9 0
d 162 37 38 45 0
d 163 37 38 45 47 0
d 164 14 23 37 38 45 47 0
d 165 148 159 1 9 14 23 37 38 45 47 0
d 166 148 159 2 4 68 75 0
d 167 37 38 45 47 0
d 168 15 17 24 26 37 38 45 47 0
d 169 148 159 2 4 68 75 15 17 24 26 37 38 45 47 0
d 170 148 159 1 9 14 23 37 38 45 47 2 4 68 75 15 17 24 26 0
d 171 2 4 68 75 15 17 1 9 24 26 37 14 23 38 45 32 52 57 47 148 159 0
d 173 172 2 0
d 174 172 2 4 0
d 175 172 2 4 68 75 15 17 0
d 176 45 47 148 0
d 177 159 0
d 178 45 47 148 159 0
d 179 24 26 37 38 45 47 148 159 0
d 180 172 2 4 68 75 15 17 24 26 37 38 45 47 148 159 0
d 181 172 2 4 68 75 15 17 0
d 182 24 26 37 38 45 47 148 159 0
d 183 172 2 4 68 75 15 17 24 26 37 38 45 47 148 159 0
d 184 172 2 4 68 75 15 17 24 26 37 38 45 47 148 159 0
d 185 2 4 68 75 15 17 1 9 24 26 37 14 23 38 45 32 52 57 47 148 159 172 0
d 186 148 159 0
d 187 172 0
d 188 148 159 172 0
d 190 148 159 172 189 0
d 191 37 38 45 47 148 159 172 189 0
d 192 1 9 14 23 37 38 45 47 148 159 172 189 0
d 193 37 38 45 47 148 159 172 189 0
d 194 2 4 68 75 15 17 24 26 37 38 45 47 148 159 172 189 0
d 195 1 9 14 23 37 38 45 47 148 159 172 189 2 4 68 75 15 17 24 26 0
d 196 2 4 68 75 15 17 1 9 24 26 37 14 23 38 45 32 52 57 47 148 159 172 189 0
d 197 1 2 4 9 68 75 14 15 17 23 24 26 32 36 37 38 44 45 47 52 57 148 159 172 189 0
3 2 0
-3 -2 0
5 4 0
-5 -4 0
-6 3 0
-6 5 0
6 -3 -5 0
7 -1 -6 0
7 1 6 0
-7 -1 6 0
-7 1 -6 0
8 7 0
-8 -7 0
11 -9 -10 0
11 9 10 0
-11 -9 10 0
-11 9 -10 0
12 11 0
-12 -11 0
13 -8 0
13 -12 0
-13 8 12 0
16 15 0
-16 -15 0
18 17 0
-18 -17 0
-19 16 0
-19 18 0
19 -16 -18 0
20 -14 -19 0
20 14 19 0
-20 -14 19 0
-20 14 -19 0
21 20 0
-21 -20 0
22 -13 0
22 -21 0
-22 13 21 0
25 24 0
-25 -24 0
27 26 0
-27 -26 0
-28 25 0
-28 27 0
28 -25 -27 0
29 -23 -28 0
29 23 28 0
-29 -23 28 0
-29 23 -28 0
30 29 0
-30 -29 0
31 -22 0
31 -30 0
-31 22 30 0
33 -32 -6 0
33 32 6 0
-33 -32 6 0
-33 32 -6 0
34 33 0
-34 -33 0
35 -31 0
35 -34 0
-35 31 34 0
-39 37 0
-39 38 0
39 -37 -38 0
40 39 0
-40 -39 0
41 -36 -40 0
41 36 40 0
-41 -36 40 0
-41 36 -40 0
42 41 0
-42 -41 0
43 -35 0
43 -42 0
-43 35 42 0
46 45 0
-46 -45 0
-48 46 0
-48 47 0
48 -46 -47 0
49 -44 -48 0
49 44 48 0
-49 -44 48 0
-49 44 -48 0
50 49 0
-50 -49 0
51 -43 0
51 -50 0
-51 43 50 0
54 -52 -53 0
54 52 53 0
-54 -52 53 0
-54 52 -53 0
55 54 0
-55 -54 0
56 -51 0
56 -55 0
-56 51 55 0
-60 58 0
-60 59 0
60 -58 -59 0
61 -57 -60 0
61 57 60 0
-61 -57 60 0
-61 57 -60 0
62 61 0
-62 -61 0
63 -56 0
63 -62 0
-63 56 62 0
64 -2 -2 0
64 2 2 0
-64 -2 2 0
-64 2 -2 0
-65 3 0
-65 4 0
65 -3 -4 0
66 -65 -65 0
66 65 65 0
-66 -65 65 0
-66 65 -65 0
-67 64 0
-67 66 0
67 -64 -66 0
-69 68 0
-69 3 0
69 -68 -3 0
-70 69 0
-70 5 0
70 -69 -5 0
71 -70 -70 0
71 70 70 0
-71 -70 70 0
-71 70 -70 0
-72 67 0
-72 71 0
72 -67 -71 0
73 68 0
-73 -68 0
-74 6 0
-74 73 0
74 -6 -73 0
-76 74 0
-76 75 0
76 -74 -75 0
77 -76 -76 0
77 76 76 0
-77 -76 76 0
-77 76 -76 0
-78 72 0
-78 77 0
78 -72 -77 0
-79 15 0
-79 3 0
79 -15 -3 0
-80 79 0
-80 5 0
80 -79 -5 0
-81 10 0
-81 80 0
81 -10 -80 0
82 75 0
-82 -75 0
-83 73 0
-83 82 0
83 -73 -82 0
-84 83 0
-84 80 0
84 -83 -80 0
85 -81 -84 0
85 81 84 0
-85 -81 84 0
-85 81 -84 0
-86 78 0
-86 85 0
86 -78 -85 0
-87 16 0
-87 17 0
87 -16 -17 0
-88 87 0
-88 58 0
88 -87 -58 0
-89 74 0
-89 82 0
89 -74 -82 0
-90 87 0
-90 89 0
90 -87 -89 0
91 -88 -90 0
91 88 90 0
-91 -88 90 0
-91 88 -90 0
-92 86 0
-92 91 0
92 -86 -91 0
-93 24 0
-93 3 0
93 -24 -3 0
-94 93 0
-94 5 0
94 -93 -5 0
-95 10 0
-95 16 0
95 -10 -16 0
-96 95 0
-96 18 0
96 -95 -18 0
-97 94 0
-97 96 0
97 -94 -96 0
-98 83 0
-98 16 0
98 -83 -16 0
-99 98 0
-99 18 0
99 -98 -18 0
-100 94 0
-100 99 0
100 -94 -99 0
101 -97 -100 0
101 97 100 0
-101 -97 100 0
-101 97 -100 0
-102 92 0
-102 101 0
102 -92 -101 0
-103 19 0
-103 25 0
103 -19 -25 0
-104 103 0
-104 26 0
104 -103 -26 0
-105 58 0
-105 104 0
105 -58 -104 0
-106 89 0
-106 104 0
106 -89 -104 0
107 -105 -106 0
107 105 106 0
-107 -105 106 0
-107 105 -106 0
-108 102 0
-108 107 0
108 -102 -107 0
-109 37 0
-109 3 0
109 -37 -3 0
-110 109 0
-110 5 0
110 -109 -5 0
-111 28 0
-111 110 0
111 -28 -110 0
-112 96 0
-112 111 0
112 -96 -111 0
-113 99 0
-113 111 0
113 -99 -111 0
114 -112 -113 0
114 112 113 0
-114 -112 113 0
-114 112 -113 0
-115 108 0
-115 114 0
115 -108 -114 0
116 37 0
-116 -37 0
-117 116 0
-117 38 0
117 -116 -38 0
-118 117 0
-118 58 0
118 -117 -58 0
-119 59 0
-119 118 0
119 -59 -118 0
-120 103 0
-120 27 0
120 -103 -27 0
-121 117 0
-121 89 0
121 -117 -89 0
-122 120 0
-122 121 0
122 -120 -121 0
123 -119 -122 0
123 119 122 0
-123 -119 122 0
-123 119 -122 0
-124 115 0
-124 123 0
124 -115 -123 0
-125 28 0
-125 40 0
125 -28 -40 0
-127 126 0
-127 96 0
127 -126 -96 0
-128 125 0
-128 127 0
128 -125 -127 0
-129 28 0
-129 116 0
129 -28 -116 0
130 38 0
-130 -38 0
-131 129 0
-131 130 0
131 -129 -130 0
-132 45 0
-132 3 0
132 -45 -3 0
-133 132 0
-133 5 0
133 -132 -5 0
-134 133 0
-134 99 0
134 -133 -99 0
-135 131 0
-135 134 0
135 -131 -134 0
136 -128 -135 0
136 128 135 0
-136 -128 135 0
-136 128 -135 0
-137 124 0
-137 136 0
137 -124 -136 0
-139 116 0
-139 130 0
139 -116 -130 0
-140 139 0
-140 46 0
140 -139 -46 0
-141 140 0
-141 47 0
141 -140 -47 0
-142 89 0
-142 120 0
142 -89 -120 0
-143 141 0
-143 142 0
143 -141 -142 0
144 -138 -143 0
144 138 143 0
-144 -138 143 0
-144 138 -143 0
-145 137 0
-145 144 0
145 -137 -144 0
146 47 0
-146 -47 0
-147 46 0
-147 146 0
147 -46 -146 0
-149 148 0
-149 3 0
149 -148 -3 0
-150 149 0
-150 5 0
150 -149 -5 0
-151 147 0
-151 150 0
151 -147 -150 0
-152 96 0
-152 125 0
152 -96 -125 0
-153 151 0
-153 152 0
153 -151 -152 0
-154 99 0
-154 131 0
154 -99 -131 0
-155 151 0
-155 154 0
155 -151 -154 0
156 -153 -155 0
156 153 155 0
-156 -153 155 0
-156 153 -155 0
-157 145 0
-157 156 0
157 -145 -156 0
158 148 0
-158 -148 0
-160 158 0
-160 159 0
160 -158 -159 0
-161 160 0
-161 58 0
161 -160 -58 0
-162 40 0
-162 46 0
162 -40 -46 0
-163 162 0
-163 146 0
163 -162 -146 0
-164 59 0
-164 163 0
164 -59 -163 0
-165 161 0
-165 164 0
165 -161 -164 0
-166 160 0
-166 89 0
166 -160 -89 0
-167 140 0
-167 146 0
167 -140 -146 0
-168 120 0
-168 167 0
168 -120 -167 0
-169 166 0
-169 168 0
169 -166 -168 0
170 -165 -169 0
170 165 169 0
-170 -165 169 0
-170 165 -169 0
-171 157 0
-171 170 0
171 -157 -170 0
-173 172 0
-173 3 0
173 -172 -3 0
-174 173 0
-174 5 0
174 -173 -5 0
-175 174 0
-175 96 0
175 -174 -96 0
-176 147 0
-176 158 0
176 -147 -158 0
177 159 0
-177 -159 0
-178 176 0
-178 177 0
178 -176 -177 0
-179 125 0
-179 178 0
179 -125 -178 0
-180 175 0
-180 179 0
180 -175 -179 0
-181 174 0
-181 99 0
181 -174 -99 0
-182 131 0
-182 178 0
182 -131 -178 0
-183 181 0
-183 182 0
183 -181 -182 0
184 -180 -183 0
184 180 183 0
-184 -180 183 0
-184 180 -183 0
-185 171 0
-185 184 0
185 -171 -184 0
-186 158 0
-186 177 0
186 -158 -177 0
187 172 0
-187 -172 0
-188 186 0
-188 187 0
188 -186 -187 0
-190 188 0
-190 189 0
190 -188 -189 0
-191 163 0
-191 190 0
191 -163 -190 0
-192 60 0
-192 191 0
192 -60 -191 0
-193 167 0
-193 190 0
193 -167 -190 0
-194 142 0
-194 193 0
194 -142 -193 0
195 -192 -194 0
195 192 194 0
-195 -192 194 0
-195 192 -194 0
-196 185 0
-196 195 0
196 -185 -195 0
197 -63 0
197 -196 0
-197 63 196 0
197 0
